NAME /Users/henri/Research/solvers/instances/idol-instances/robust/collection/cbp_Subramanyam_et_al_2020/CapBud_N10_18/models/uncertain_technology_matrix/
ROWS
 N  OBJ
 L  capacity
 L  c_1055
 L  c_1056
 L  c_1057
 L  c_1058
 L  c_1059
 L  c_1060
 L  c_1061
 L  c_1062
 L  c_1063
 L  c_1064
COLUMNS
    MARKER    'MARKER'                 'INTORG'
    x_0        OBJ        -4.70052
    x_0        c_1055     1
    x_0        capacity   0.940105
    x_1        OBJ        -9.47703
    x_1        c_1056     1
    x_1        capacity   1.89541
    x_2        OBJ        -8.01014
    x_2        c_1057     1
    x_2        capacity   1.60203
    x_3        OBJ        -2.71186
    x_3        c_1058     1
    x_3        capacity   0.542371
    x_4        OBJ        -2.31585
    x_4        c_1059     1
    x_4        capacity   0.463171
    x_5        OBJ        -1.98617
    x_5        c_1060     1
    x_5        capacity   0.397233
    x_6        OBJ        -4.29725
    x_6        c_1061     1
    x_6        capacity   0.859451
    x_7        OBJ        -8.07906
    x_7        c_1062     1
    x_7        capacity   1.61581
    x_8        OBJ        -1.52302
    x_8        c_1063     1
    x_8        capacity   0.304604
    x_9        OBJ        -6.1706
    x_9        c_1064     1
    x_9        capacity   1.23412
    y_0        OBJ        -3.76042
    y_0        c_1055     1
    y_0        capacity   0.940105
    y_1        OBJ        -7.58163
    y_1        c_1056     1
    y_1        capacity   1.89541
    y_2        OBJ        -6.40811
    y_2        c_1057     1
    y_2        capacity   1.60203
    y_3        OBJ        -2.16949
    y_3        c_1058     1
    y_3        capacity   0.542371
    y_4        OBJ        -1.85268
    y_4        c_1059     1
    y_4        capacity   0.463171
    y_5        OBJ        -1.58893
    y_5        c_1060     1
    y_5        capacity   0.397233
    y_6        OBJ        -3.4378
    y_6        c_1061     1
    y_6        capacity   0.859451
    y_7        OBJ        -6.46325
    y_7        c_1062     1
    y_7        capacity   1.61581
    y_8        OBJ        -1.21842
    y_8        c_1063     1
    y_8        capacity   0.304604
    y_9        OBJ        -4.93648
    y_9        c_1064     1
    y_9        capacity   1.23412
    MARKER    'MARKER'                 'INTEND'
RHS
    RHS       capacity   24.6358
    RHS       c_1055     1
    RHS       c_1056     1
    RHS       c_1057     1
    RHS       c_1058     1
    RHS       c_1059     1
    RHS       c_1060     1
    RHS       c_1061     1
    RHS       c_1062     1
    RHS       c_1063     1
    RHS       c_1064     1
BOUNDS
 LI BND       x_0        0
 UI BND       x_0        1
 LI BND       x_1        0
 UI BND       x_1        1
 LI BND       x_2        0
 UI BND       x_2        1
 LI BND       x_3        0
 UI BND       x_3        1
 LI BND       x_4        0
 UI BND       x_4        1
 LI BND       x_5        0
 UI BND       x_5        1
 LI BND       x_6        0
 UI BND       x_6        1
 LI BND       x_7        0
 UI BND       x_7        1
 LI BND       x_8        0
 UI BND       x_8        1
 LI BND       x_9        0
 UI BND       x_9        1
 LI BND       y_0        0
 UI BND       y_0        1
 LI BND       y_1        0
 UI BND       y_1        1
 LI BND       y_2        0
 UI BND       y_2        1
 LI BND       y_3        0
 UI BND       y_3        1
 LI BND       y_4        0
 UI BND       y_4        1
 LI BND       y_5        0
 UI BND       y_5        1
 LI BND       y_6        0
 UI BND       y_6        1
 LI BND       y_7        0
 UI BND       y_7        1
 LI BND       y_8        0
 UI BND       y_8        1
 LI BND       y_9        0
 UI BND       y_9        1
ENDATA
